# Objective value = 1.1496511897801412e+01
cartoon_0_y_0_x_0 0
cartoon_0_y_0_x_1 0
cartoon_0_y_0_x_2 0
cartoon_0_y_0_x_3 0
cartoon_0_y_0_x_4 0
cartoon_0_y_0_x_5 0
cartoon_0_y_0_x_6 0
cartoon_0_y_0_x_7 0
cartoon_0_y_0_x_8 0
cartoon_0_y_0_x_9 0
cartoon_0_y_0_x_10 0
cartoon_0_y_0_x_11 0
cartoon_0_y_0_x_12 0
cartoon_0_y_0_x_13 0
cartoon_0_y_0_x_14 0
cartoon_0_y_0_x_15 0
cartoon_0_y_0_x_16 0
cartoon_0_y_0_x_17 0
cartoon_0_y_0_x_18 0
cartoon_0_y_0_x_19 0
cartoon_0_y_0_x_20 0
cartoon_0_y_1_x_0 0
cartoon_0_y_1_x_1 0
cartoon_0_y_1_x_2 0
cartoon_0_y_1_x_3 0
cartoon_0_y_1_x_4 0
cartoon_0_y_1_x_5 0
cartoon_0_y_1_x_6 0
cartoon_0_y_1_x_7 0
cartoon_0_y_1_x_8 0
cartoon_0_y_1_x_9 0
cartoon_0_y_1_x_10 0
cartoon_0_y_1_x_11 0
cartoon_0_y_1_x_12 0
cartoon_0_y_1_x_13 0
cartoon_0_y_1_x_14 0
cartoon_0_y_1_x_15 1
cartoon_0_y_1_x_16 0
cartoon_0_y_1_x_17 0
cartoon_0_y_1_x_18 0
cartoon_0_y_1_x_19 0
cartoon_0_y_1_x_20 0
cartoon_0_y_2_x_0 0
cartoon_0_y_2_x_1 0
cartoon_0_y_2_x_2 0
cartoon_0_y_2_x_3 0
cartoon_0_y_2_x_4 0
cartoon_0_y_2_x_5 1
cartoon_0_y_2_x_6 1
cartoon_0_y_2_x_7 0
cartoon_0_y_2_x_8 0
cartoon_0_y_2_x_9 0
cartoon_0_y_2_x_10 0
cartoon_0_y_2_x_11 0
cartoon_0_y_2_x_12 0
cartoon_0_y_2_x_13 0
cartoon_0_y_2_x_14 1
cartoon_0_y_2_x_15 1
cartoon_0_y_2_x_16 0
cartoon_0_y_2_x_17 0
cartoon_0_y_2_x_18 0
cartoon_0_y_2_x_19 0
cartoon_0_y_2_x_20 0
cartoon_0_y_3_x_0 0
cartoon_0_y_3_x_1 0
cartoon_0_y_3_x_2 0
cartoon_0_y_3_x_3 0
cartoon_0_y_3_x_4 0
cartoon_0_y_3_x_5 0
cartoon_0_y_3_x_6 1
cartoon_0_y_3_x_7 1
cartoon_0_y_3_x_8 0
cartoon_0_y_3_x_9 0
cartoon_0_y_3_x_10 0
cartoon_0_y_3_x_11 0
cartoon_0_y_3_x_12 0
cartoon_0_y_3_x_13 0
cartoon_0_y_3_x_14 1
cartoon_0_y_3_x_15 1
cartoon_0_y_3_x_16 0
cartoon_0_y_3_x_17 0
cartoon_0_y_3_x_18 0
cartoon_0_y_3_x_19 0
cartoon_0_y_3_x_20 0
cartoon_0_y_4_x_0 0
cartoon_0_y_4_x_1 0
cartoon_0_y_4_x_2 0
cartoon_0_y_4_x_3 0
cartoon_0_y_4_x_4 0
cartoon_0_y_4_x_5 0
cartoon_0_y_4_x_6 1
cartoon_0_y_4_x_7 1
cartoon_0_y_4_x_8 0
cartoon_0_y_4_x_9 0
cartoon_0_y_4_x_10 0
cartoon_0_y_4_x_11 0
cartoon_0_y_4_x_12 0
cartoon_0_y_4_x_13 0
cartoon_0_y_4_x_14 0
cartoon_0_y_4_x_15 0
cartoon_0_y_4_x_16 0
cartoon_0_y_4_x_17 0
cartoon_0_y_4_x_18 0
cartoon_0_y_4_x_19 0
cartoon_0_y_4_x_20 0
cartoon_0_y_5_x_0 0
cartoon_0_y_5_x_1 0
cartoon_0_y_5_x_2 0
cartoon_0_y_5_x_3 0
cartoon_0_y_5_x_4 0
cartoon_0_y_5_x_5 0
cartoon_0_y_5_x_6 0
cartoon_0_y_5_x_7 0
cartoon_0_y_5_x_8 0
cartoon_0_y_5_x_9 1
cartoon_0_y_5_x_10 1
cartoon_0_y_5_x_11 1
cartoon_0_y_5_x_12 1
cartoon_0_y_5_x_13 0
cartoon_0_y_5_x_14 0
cartoon_0_y_5_x_15 0
cartoon_0_y_5_x_16 0
cartoon_0_y_5_x_17 0
cartoon_0_y_5_x_18 0
cartoon_0_y_5_x_19 0
cartoon_0_y_5_x_20 0
cartoon_0_y_6_x_0 0
cartoon_0_y_6_x_1 0
cartoon_0_y_6_x_2 0
cartoon_0_y_6_x_3 0
cartoon_0_y_6_x_4 0
cartoon_0_y_6_x_5 0
cartoon_0_y_6_x_6 0
cartoon_0_y_6_x_7 0
cartoon_0_y_6_x_8 1
cartoon_0_y_6_x_9 1
cartoon_0_y_6_x_10 1
cartoon_0_y_6_x_11 1
cartoon_0_y_6_x_12 1
cartoon_0_y_6_x_13 1
cartoon_0_y_6_x_14 0
cartoon_0_y_6_x_15 0
cartoon_0_y_6_x_16 0
cartoon_0_y_6_x_17 0
cartoon_0_y_6_x_18 0
cartoon_0_y_6_x_19 0
cartoon_0_y_6_x_20 0
cartoon_0_y_7_x_0 0
cartoon_0_y_7_x_1 0
cartoon_0_y_7_x_2 0
cartoon_0_y_7_x_3 0
cartoon_0_y_7_x_4 0
cartoon_0_y_7_x_5 0
cartoon_0_y_7_x_6 0
cartoon_0_y_7_x_7 1
cartoon_0_y_7_x_8 0
cartoon_0_y_7_x_9 1
cartoon_0_y_7_x_10 0
cartoon_0_y_7_x_11 0
cartoon_0_y_7_x_12 1
cartoon_0_y_7_x_13 0
cartoon_0_y_7_x_14 1
cartoon_0_y_7_x_15 0
cartoon_0_y_7_x_16 0
cartoon_0_y_7_x_17 0
cartoon_0_y_7_x_18 0
cartoon_0_y_7_x_19 0
cartoon_0_y_7_x_20 0
cartoon_0_y_8_x_0 0
cartoon_0_y_8_x_1 0
cartoon_0_y_8_x_2 0
cartoon_0_y_8_x_3 0
cartoon_0_y_8_x_4 0
cartoon_0_y_8_x_5 0
cartoon_0_y_8_x_6 0
cartoon_0_y_8_x_7 1
cartoon_0_y_8_x_8 0
cartoon_0_y_8_x_9 0
cartoon_0_y_8_x_10 0
cartoon_0_y_8_x_11 0
cartoon_0_y_8_x_12 1
cartoon_0_y_8_x_13 0
cartoon_0_y_8_x_14 1
cartoon_0_y_8_x_15 0
cartoon_0_y_8_x_16 0
cartoon_0_y_8_x_17 0
cartoon_0_y_8_x_18 0
cartoon_0_y_8_x_19 0
cartoon_0_y_8_x_20 0
cartoon_0_y_9_x_0 0
cartoon_0_y_9_x_1 0
cartoon_0_y_9_x_2 0
cartoon_0_y_9_x_3 0
cartoon_0_y_9_x_4 0
cartoon_0_y_9_x_5 0
cartoon_0_y_9_x_6 0
cartoon_0_y_9_x_7 0
cartoon_0_y_9_x_8 0
cartoon_0_y_9_x_9 0
cartoon_0_y_9_x_10 0
cartoon_0_y_9_x_11 0
cartoon_0_y_9_x_12 0
cartoon_0_y_9_x_13 0
cartoon_0_y_9_x_14 0
cartoon_0_y_9_x_15 0
cartoon_0_y_9_x_16 0
cartoon_0_y_9_x_17 0
cartoon_0_y_9_x_18 0
cartoon_0_y_9_x_19 0
cartoon_0_y_9_x_20 0
cartoon_0_y_10_x_0 0
cartoon_0_y_10_x_1 0
cartoon_0_y_10_x_2 0
cartoon_0_y_10_x_3 0
cartoon_0_y_10_x_4 0
cartoon_0_y_10_x_5 0
cartoon_0_y_10_x_6 0
cartoon_0_y_10_x_7 0
cartoon_0_y_10_x_8 0
cartoon_0_y_10_x_9 0
cartoon_0_y_10_x_10 0
cartoon_0_y_10_x_11 0
cartoon_0_y_10_x_12 0
cartoon_0_y_10_x_13 0
cartoon_0_y_10_x_14 0
cartoon_0_y_10_x_15 0
cartoon_0_y_10_x_16 0
cartoon_0_y_10_x_17 0
cartoon_0_y_10_x_18 0
cartoon_0_y_10_x_19 0
cartoon_0_y_10_x_20 0
cartoon_1_y_0_x_0 0
cartoon_1_y_0_x_1 0
cartoon_1_y_0_x_2 0
cartoon_1_y_0_x_3 0
cartoon_1_y_0_x_4 0
cartoon_1_y_0_x_5 0
cartoon_1_y_0_x_6 0
cartoon_1_y_0_x_7 0
cartoon_1_y_0_x_8 0
cartoon_1_y_0_x_9 0
cartoon_1_y_0_x_10 0
cartoon_1_y_0_x_11 0
cartoon_1_y_0_x_12 0
cartoon_1_y_0_x_13 0
cartoon_1_y_0_x_14 0
cartoon_1_y_0_x_15 0
cartoon_1_y_0_x_16 0
cartoon_1_y_0_x_17 0
cartoon_1_y_0_x_18 0
cartoon_1_y_0_x_19 0
cartoon_1_y_0_x_20 0
cartoon_1_y_1_x_0 0
cartoon_1_y_1_x_1 0
cartoon_1_y_1_x_2 0
cartoon_1_y_1_x_3 0
cartoon_1_y_1_x_4 0
cartoon_1_y_1_x_5 0
cartoon_1_y_1_x_6 0
cartoon_1_y_1_x_7 0
cartoon_1_y_1_x_8 0
cartoon_1_y_1_x_9 0
cartoon_1_y_1_x_10 0
cartoon_1_y_1_x_11 0
cartoon_1_y_1_x_12 0
cartoon_1_y_1_x_13 0
cartoon_1_y_1_x_14 1
cartoon_1_y_1_x_15 0
cartoon_1_y_1_x_16 0
cartoon_1_y_1_x_17 0
cartoon_1_y_1_x_18 0
cartoon_1_y_1_x_19 0
cartoon_1_y_1_x_20 0
cartoon_1_y_2_x_0 0
cartoon_1_y_2_x_1 0
cartoon_1_y_2_x_2 0
cartoon_1_y_2_x_3 0
cartoon_1_y_2_x_4 0
cartoon_1_y_2_x_5 0
cartoon_1_y_2_x_6 0
cartoon_1_y_2_x_7 0
cartoon_1_y_2_x_8 0
cartoon_1_y_2_x_9 0
cartoon_1_y_2_x_10 0
cartoon_1_y_2_x_11 0
cartoon_1_y_2_x_12 0
cartoon_1_y_2_x_13 1
cartoon_1_y_2_x_14 0
cartoon_1_y_2_x_15 0
cartoon_1_y_2_x_16 0
cartoon_1_y_2_x_17 0
cartoon_1_y_2_x_18 0
cartoon_1_y_2_x_19 0
cartoon_1_y_2_x_20 0
cartoon_1_y_3_x_0 0
cartoon_1_y_3_x_1 0
cartoon_1_y_3_x_2 0
cartoon_1_y_3_x_3 0
cartoon_1_y_3_x_4 0
cartoon_1_y_3_x_5 1
cartoon_1_y_3_x_6 0
cartoon_1_y_3_x_7 0
cartoon_1_y_3_x_8 0
cartoon_1_y_3_x_9 0
cartoon_1_y_3_x_10 0
cartoon_1_y_3_x_11 0
cartoon_1_y_3_x_12 0
cartoon_1_y_3_x_13 1
cartoon_1_y_3_x_14 0
cartoon_1_y_3_x_15 0
cartoon_1_y_3_x_16 0
cartoon_1_y_3_x_17 0
cartoon_1_y_3_x_18 0
cartoon_1_y_3_x_19 0
cartoon_1_y_3_x_20 0
cartoon_1_y_4_x_0 0
cartoon_1_y_4_x_1 0
cartoon_1_y_4_x_2 0
cartoon_1_y_4_x_3 0
cartoon_1_y_4_x_4 0
cartoon_1_y_4_x_5 0
cartoon_1_y_4_x_6 0
cartoon_1_y_4_x_7 0
cartoon_1_y_4_x_8 0
cartoon_1_y_4_x_9 1
cartoon_1_y_4_x_10 1
cartoon_1_y_4_x_11 1
cartoon_1_y_4_x_12 1
cartoon_1_y_4_x_13 1
cartoon_1_y_4_x_14 1
cartoon_1_y_4_x_15 0
cartoon_1_y_4_x_16 0
cartoon_1_y_4_x_17 0
cartoon_1_y_4_x_18 0
cartoon_1_y_4_x_19 0
cartoon_1_y_4_x_20 0
cartoon_1_y_5_x_0 0
cartoon_1_y_5_x_1 0
cartoon_1_y_5_x_2 0
cartoon_1_y_5_x_3 0
cartoon_1_y_5_x_4 0
cartoon_1_y_5_x_5 0
cartoon_1_y_5_x_6 0
cartoon_1_y_5_x_7 0
cartoon_1_y_5_x_8 1
cartoon_1_y_5_x_9 0
cartoon_1_y_5_x_10 0
cartoon_1_y_5_x_11 0
cartoon_1_y_5_x_12 0
cartoon_1_y_5_x_13 1
cartoon_1_y_5_x_14 0
cartoon_1_y_5_x_15 1
cartoon_1_y_5_x_16 0
cartoon_1_y_5_x_17 0
cartoon_1_y_5_x_18 0
cartoon_1_y_5_x_19 0
cartoon_1_y_5_x_20 0
cartoon_1_y_6_x_0 0
cartoon_1_y_6_x_1 0
cartoon_1_y_6_x_2 0
cartoon_1_y_6_x_3 0
cartoon_1_y_6_x_4 0
cartoon_1_y_6_x_5 0
cartoon_1_y_6_x_6 0
cartoon_1_y_6_x_7 1
cartoon_1_y_6_x_8 0
cartoon_1_y_6_x_9 0
cartoon_1_y_6_x_10 0
cartoon_1_y_6_x_11 0
cartoon_1_y_6_x_12 0
cartoon_1_y_6_x_13 0
cartoon_1_y_6_x_14 1
cartoon_1_y_6_x_15 1
cartoon_1_y_6_x_16 0
cartoon_1_y_6_x_17 0
cartoon_1_y_6_x_18 0
cartoon_1_y_6_x_19 0
cartoon_1_y_6_x_20 0
cartoon_1_y_7_x_0 0
cartoon_1_y_7_x_1 0
cartoon_1_y_7_x_2 0
cartoon_1_y_7_x_3 0
cartoon_1_y_7_x_4 0
cartoon_1_y_7_x_5 0
cartoon_1_y_7_x_6 1
cartoon_1_y_7_x_7 0
cartoon_1_y_7_x_8 1
cartoon_1_y_7_x_9 0
cartoon_1_y_7_x_10 0
cartoon_1_y_7_x_11 0
cartoon_1_y_7_x_12 0
cartoon_1_y_7_x_13 1
cartoon_1_y_7_x_14 0
cartoon_1_y_7_x_15 1
cartoon_1_y_7_x_16 0
cartoon_1_y_7_x_17 0
cartoon_1_y_7_x_18 0
cartoon_1_y_7_x_19 0
cartoon_1_y_7_x_20 0
cartoon_1_y_8_x_0 0
cartoon_1_y_8_x_1 0
cartoon_1_y_8_x_2 0
cartoon_1_y_8_x_3 0
cartoon_1_y_8_x_4 0
cartoon_1_y_8_x_5 0
cartoon_1_y_8_x_6 0
cartoon_1_y_8_x_7 0
cartoon_1_y_8_x_8 1
cartoon_1_y_8_x_9 1
cartoon_1_y_8_x_10 0
cartoon_1_y_8_x_11 0
cartoon_1_y_8_x_12 0
cartoon_1_y_8_x_13 1
cartoon_1_y_8_x_14 0
cartoon_1_y_8_x_15 1
cartoon_1_y_8_x_16 0
cartoon_1_y_8_x_17 0
cartoon_1_y_8_x_18 0
cartoon_1_y_8_x_19 0
cartoon_1_y_8_x_20 0
cartoon_1_y_9_x_0 0
cartoon_1_y_9_x_1 0
cartoon_1_y_9_x_2 0
cartoon_1_y_9_x_3 0
cartoon_1_y_9_x_4 0
cartoon_1_y_9_x_5 0
cartoon_1_y_9_x_6 0
cartoon_1_y_9_x_7 1
cartoon_1_y_9_x_8 1
cartoon_1_y_9_x_9 0
cartoon_1_y_9_x_10 0
cartoon_1_y_9_x_11 0
cartoon_1_y_9_x_12 0
cartoon_1_y_9_x_13 1
cartoon_1_y_9_x_14 1
cartoon_1_y_9_x_15 0
cartoon_1_y_9_x_16 0
cartoon_1_y_9_x_17 0
cartoon_1_y_9_x_18 0
cartoon_1_y_9_x_19 0
cartoon_1_y_9_x_20 0
cartoon_1_y_10_x_0 0
cartoon_1_y_10_x_1 0
cartoon_1_y_10_x_2 0
cartoon_1_y_10_x_3 0
cartoon_1_y_10_x_4 0
cartoon_1_y_10_x_5 0
cartoon_1_y_10_x_6 0
cartoon_1_y_10_x_7 0
cartoon_1_y_10_x_8 0
cartoon_1_y_10_x_9 0
cartoon_1_y_10_x_10 0
cartoon_1_y_10_x_11 0
cartoon_1_y_10_x_12 0
cartoon_1_y_10_x_13 0
cartoon_1_y_10_x_14 0
cartoon_1_y_10_x_15 0
cartoon_1_y_10_x_16 0
cartoon_1_y_10_x_17 0
cartoon_1_y_10_x_18 0
cartoon_1_y_10_x_19 0
cartoon_1_y_10_x_20 0
cartoon_2_y_0_x_0 0
cartoon_2_y_0_x_1 0
cartoon_2_y_0_x_2 0
cartoon_2_y_0_x_3 0
cartoon_2_y_0_x_4 0
cartoon_2_y_0_x_5 0
cartoon_2_y_0_x_6 0
cartoon_2_y_0_x_7 0
cartoon_2_y_0_x_8 0
cartoon_2_y_0_x_9 0
cartoon_2_y_0_x_10 0
cartoon_2_y_0_x_11 0
cartoon_2_y_0_x_12 0
cartoon_2_y_0_x_13 0
cartoon_2_y_0_x_14 0
cartoon_2_y_0_x_15 1
cartoon_2_y_0_x_16 1
cartoon_2_y_0_x_17 0
cartoon_2_y_0_x_18 0
cartoon_2_y_0_x_19 0
cartoon_2_y_0_x_20 0
cartoon_2_y_1_x_0 0
cartoon_2_y_1_x_1 0
cartoon_2_y_1_x_2 0
cartoon_2_y_1_x_3 0
cartoon_2_y_1_x_4 1
cartoon_2_y_1_x_5 1
cartoon_2_y_1_x_6 0
cartoon_2_y_1_x_7 0
cartoon_2_y_1_x_8 0
cartoon_2_y_1_x_9 0
cartoon_2_y_1_x_10 0
cartoon_2_y_1_x_11 0
cartoon_2_y_1_x_12 0
cartoon_2_y_1_x_13 0
cartoon_2_y_1_x_14 0
cartoon_2_y_1_x_15 0
cartoon_2_y_1_x_16 1
cartoon_2_y_1_x_17 0
cartoon_2_y_1_x_18 0
cartoon_2_y_1_x_19 0
cartoon_2_y_1_x_20 0
cartoon_2_y_2_x_0 0
cartoon_2_y_2_x_1 0
cartoon_2_y_2_x_2 0
cartoon_2_y_2_x_3 0
cartoon_2_y_2_x_4 0
cartoon_2_y_2_x_5 0
cartoon_2_y_2_x_6 0
cartoon_2_y_2_x_7 1
cartoon_2_y_2_x_8 0
cartoon_2_y_2_x_9 0
cartoon_2_y_2_x_10 0
cartoon_2_y_2_x_11 0
cartoon_2_y_2_x_12 0
cartoon_2_y_2_x_13 0
cartoon_2_y_2_x_14 0
cartoon_2_y_2_x_15 0
cartoon_2_y_2_x_16 0
cartoon_2_y_2_x_17 0
cartoon_2_y_2_x_18 0
cartoon_2_y_2_x_19 0
cartoon_2_y_2_x_20 0
cartoon_2_y_3_x_0 0
cartoon_2_y_3_x_1 0
cartoon_2_y_3_x_2 0
cartoon_2_y_3_x_3 0
cartoon_2_y_3_x_4 0
cartoon_2_y_3_x_5 0
cartoon_2_y_3_x_6 0
cartoon_2_y_3_x_7 0
cartoon_2_y_3_x_8 1
cartoon_2_y_3_x_9 0
cartoon_2_y_3_x_10 0
cartoon_2_y_3_x_11 0
cartoon_2_y_3_x_12 1
cartoon_2_y_3_x_13 0
cartoon_2_y_3_x_14 0
cartoon_2_y_3_x_15 0
cartoon_2_y_3_x_16 0
cartoon_2_y_3_x_17 0
cartoon_2_y_3_x_18 0
cartoon_2_y_3_x_19 0
cartoon_2_y_3_x_20 0
cartoon_2_y_4_x_0 0
cartoon_2_y_4_x_1 0
cartoon_2_y_4_x_2 0
cartoon_2_y_4_x_3 0
cartoon_2_y_4_x_4 0
cartoon_2_y_4_x_5 0
cartoon_2_y_4_x_6 0
cartoon_2_y_4_x_7 0
cartoon_2_y_4_x_8 1
cartoon_2_y_4_x_9 0
cartoon_2_y_4_x_10 0
cartoon_2_y_4_x_11 0
cartoon_2_y_4_x_12 0
cartoon_2_y_4_x_13 0
cartoon_2_y_4_x_14 0
cartoon_2_y_4_x_15 1
cartoon_2_y_4_x_16 0
cartoon_2_y_4_x_17 0
cartoon_2_y_4_x_18 0
cartoon_2_y_4_x_19 0
cartoon_2_y_4_x_20 0
cartoon_2_y_5_x_0 0
cartoon_2_y_5_x_1 0
cartoon_2_y_5_x_2 0
cartoon_2_y_5_x_3 0
cartoon_2_y_5_x_4 0
cartoon_2_y_5_x_5 0
cartoon_2_y_5_x_6 1
cartoon_2_y_5_x_7 1
cartoon_2_y_5_x_8 0
cartoon_2_y_5_x_9 0
cartoon_2_y_5_x_10 0
cartoon_2_y_5_x_11 0
cartoon_2_y_5_x_12 0
cartoon_2_y_5_x_13 0
cartoon_2_y_5_x_14 1
cartoon_2_y_5_x_15 0
cartoon_2_y_5_x_16 1
cartoon_2_y_5_x_17 1
cartoon_2_y_5_x_18 0
cartoon_2_y_5_x_19 0
cartoon_2_y_5_x_20 0
cartoon_2_y_6_x_0 0
cartoon_2_y_6_x_1 0
cartoon_2_y_6_x_2 0
cartoon_2_y_6_x_3 0
cartoon_2_y_6_x_4 0
cartoon_2_y_6_x_5 0
cartoon_2_y_6_x_6 1
cartoon_2_y_6_x_7 0
cartoon_2_y_6_x_8 0
cartoon_2_y_6_x_9 0
cartoon_2_y_6_x_10 0
cartoon_2_y_6_x_11 0
cartoon_2_y_6_x_12 0
cartoon_2_y_6_x_13 0
cartoon_2_y_6_x_14 0
cartoon_2_y_6_x_15 0
cartoon_2_y_6_x_16 1
cartoon_2_y_6_x_17 1
cartoon_2_y_6_x_18 0
cartoon_2_y_6_x_19 0
cartoon_2_y_6_x_20 0
cartoon_2_y_7_x_0 0
cartoon_2_y_7_x_1 0
cartoon_2_y_7_x_2 0
cartoon_2_y_7_x_3 0
cartoon_2_y_7_x_4 0
cartoon_2_y_7_x_5 1
cartoon_2_y_7_x_6 0
cartoon_2_y_7_x_7 0
cartoon_2_y_7_x_8 0
cartoon_2_y_7_x_9 0
cartoon_2_y_7_x_10 1
cartoon_2_y_7_x_11 1
cartoon_2_y_7_x_12 0
cartoon_2_y_7_x_13 0
cartoon_2_y_7_x_14 0
cartoon_2_y_7_x_15 0
cartoon_2_y_7_x_16 1
cartoon_2_y_7_x_17 0
cartoon_2_y_7_x_18 0
cartoon_2_y_7_x_19 0
cartoon_2_y_7_x_20 0
cartoon_2_y_8_x_0 0
cartoon_2_y_8_x_1 0
cartoon_2_y_8_x_2 0
cartoon_2_y_8_x_3 0
cartoon_2_y_8_x_4 0
cartoon_2_y_8_x_5 0
cartoon_2_y_8_x_6 1
cartoon_2_y_8_x_7 0
cartoon_2_y_8_x_8 0
cartoon_2_y_8_x_9 0
cartoon_2_y_8_x_10 0
cartoon_2_y_8_x_11 0
cartoon_2_y_8_x_12 0
cartoon_2_y_8_x_13 0
cartoon_2_y_8_x_14 0
cartoon_2_y_8_x_15 0
cartoon_2_y_8_x_16 0
cartoon_2_y_8_x_17 0
cartoon_2_y_8_x_18 0
cartoon_2_y_8_x_19 0
cartoon_2_y_8_x_20 0
cartoon_2_y_9_x_0 0
cartoon_2_y_9_x_1 0
cartoon_2_y_9_x_2 0
cartoon_2_y_9_x_3 0
cartoon_2_y_9_x_4 0
cartoon_2_y_9_x_5 0
cartoon_2_y_9_x_6 1
cartoon_2_y_9_x_7 0
cartoon_2_y_9_x_8 0
cartoon_2_y_9_x_9 0
cartoon_2_y_9_x_10 0
cartoon_2_y_9_x_11 0
cartoon_2_y_9_x_12 0
cartoon_2_y_9_x_13 0
cartoon_2_y_9_x_14 0
cartoon_2_y_9_x_15 1
cartoon_2_y_9_x_16 0
cartoon_2_y_9_x_17 0
cartoon_2_y_9_x_18 0
cartoon_2_y_9_x_19 0
cartoon_2_y_9_x_20 0
cartoon_2_y_10_x_0 0
cartoon_2_y_10_x_1 0
cartoon_2_y_10_x_2 0
cartoon_2_y_10_x_3 0
cartoon_2_y_10_x_4 0
cartoon_2_y_10_x_5 0
cartoon_2_y_10_x_6 0
cartoon_2_y_10_x_7 0
cartoon_2_y_10_x_8 1
cartoon_2_y_10_x_9 0
cartoon_2_y_10_x_10 0
cartoon_2_y_10_x_11 0
cartoon_2_y_10_x_12 0
cartoon_2_y_10_x_13 1
cartoon_2_y_10_x_14 0
cartoon_2_y_10_x_15 0
cartoon_2_y_10_x_16 0
cartoon_2_y_10_x_17 1
cartoon_2_y_10_x_18 0
cartoon_2_y_10_x_19 0
cartoon_2_y_10_x_20 0
cartoon_3_y_0_x_0 0
cartoon_3_y_0_x_1 0
cartoon_3_y_0_x_2 0
cartoon_3_y_0_x_3 0
cartoon_3_y_0_x_4 0
cartoon_3_y_0_x_5 0
cartoon_3_y_0_x_6 0
cartoon_3_y_0_x_7 0
cartoon_3_y_0_x_8 0
cartoon_3_y_0_x_9 0
cartoon_3_y_0_x_10 0
cartoon_3_y_0_x_11 0
cartoon_3_y_0_x_12 0
cartoon_3_y_0_x_13 0
cartoon_3_y_0_x_14 0
cartoon_3_y_0_x_15 0
cartoon_3_y_0_x_16 0
cartoon_3_y_0_x_17 0
cartoon_3_y_0_x_18 0
cartoon_3_y_0_x_19 0
cartoon_3_y_0_x_20 0
cartoon_3_y_1_x_0 0
cartoon_3_y_1_x_1 0
cartoon_3_y_1_x_2 0
cartoon_3_y_1_x_3 0
cartoon_3_y_1_x_4 0
cartoon_3_y_1_x_5 0
cartoon_3_y_1_x_6 0
cartoon_3_y_1_x_7 0
cartoon_3_y_1_x_8 0
cartoon_3_y_1_x_9 0
cartoon_3_y_1_x_10 0
cartoon_3_y_1_x_11 0
cartoon_3_y_1_x_12 0
cartoon_3_y_1_x_13 0
cartoon_3_y_1_x_14 0
cartoon_3_y_1_x_15 0
cartoon_3_y_1_x_16 0
cartoon_3_y_1_x_17 0
cartoon_3_y_1_x_18 0
cartoon_3_y_1_x_19 0
cartoon_3_y_1_x_20 0
cartoon_3_y_2_x_0 0
cartoon_3_y_2_x_1 0
cartoon_3_y_2_x_2 0
cartoon_3_y_2_x_3 0
cartoon_3_y_2_x_4 1
cartoon_3_y_2_x_5 0
cartoon_3_y_2_x_6 0
cartoon_3_y_2_x_7 0
cartoon_3_y_2_x_8 1
cartoon_3_y_2_x_9 0
cartoon_3_y_2_x_10 0
cartoon_3_y_2_x_11 0
cartoon_3_y_2_x_12 1
cartoon_3_y_2_x_13 0
cartoon_3_y_2_x_14 0
cartoon_3_y_2_x_15 0
cartoon_3_y_2_x_16 1
cartoon_3_y_2_x_17 0
cartoon_3_y_2_x_18 0
cartoon_3_y_2_x_19 0
cartoon_3_y_2_x_20 0
cartoon_3_y_3_x_0 0
cartoon_3_y_3_x_1 0
cartoon_3_y_3_x_2 0
cartoon_3_y_3_x_3 0
cartoon_3_y_3_x_4 0
cartoon_3_y_3_x_5 0
cartoon_3_y_3_x_6 0
cartoon_3_y_3_x_7 0
cartoon_3_y_3_x_8 0
cartoon_3_y_3_x_9 1
cartoon_3_y_3_x_10 1
cartoon_3_y_3_x_11 1
cartoon_3_y_3_x_12 0
cartoon_3_y_3_x_13 0
cartoon_3_y_3_x_14 0
cartoon_3_y_3_x_15 0
cartoon_3_y_3_x_16 0
cartoon_3_y_3_x_17 0
cartoon_3_y_3_x_18 0
cartoon_3_y_3_x_19 0
cartoon_3_y_3_x_20 0
cartoon_3_y_4_x_0 0
cartoon_3_y_4_x_1 0
cartoon_3_y_4_x_2 0
cartoon_3_y_4_x_3 0
cartoon_3_y_4_x_4 0
cartoon_3_y_4_x_5 1
cartoon_3_y_4_x_6 0
cartoon_3_y_4_x_7 0
cartoon_3_y_4_x_8 0
cartoon_3_y_4_x_9 0
cartoon_3_y_4_x_10 0
cartoon_3_y_4_x_11 0
cartoon_3_y_4_x_12 0
cartoon_3_y_4_x_13 0
cartoon_3_y_4_x_14 0
cartoon_3_y_4_x_15 0
cartoon_3_y_4_x_16 1
cartoon_3_y_4_x_17 1
cartoon_3_y_4_x_18 0
cartoon_3_y_4_x_19 0
cartoon_3_y_4_x_20 0
cartoon_3_y_5_x_0 0
cartoon_3_y_5_x_1 0
cartoon_3_y_5_x_2 0
cartoon_3_y_5_x_3 0
cartoon_3_y_5_x_4 0
cartoon_3_y_5_x_5 0
cartoon_3_y_5_x_6 0
cartoon_3_y_5_x_7 0
cartoon_3_y_5_x_8 0
cartoon_3_y_5_x_9 0
cartoon_3_y_5_x_10 0
cartoon_3_y_5_x_11 0
cartoon_3_y_5_x_12 0
cartoon_3_y_5_x_13 0
cartoon_3_y_5_x_14 0
cartoon_3_y_5_x_15 0
cartoon_3_y_5_x_16 0
cartoon_3_y_5_x_17 0
cartoon_3_y_5_x_18 0
cartoon_3_y_5_x_19 0
cartoon_3_y_5_x_20 0
cartoon_3_y_6_x_0 0
cartoon_3_y_6_x_1 0
cartoon_3_y_6_x_2 0
cartoon_3_y_6_x_3 0
cartoon_3_y_6_x_4 0
cartoon_3_y_6_x_5 1
cartoon_3_y_6_x_6 0
cartoon_3_y_6_x_7 0
cartoon_3_y_6_x_8 0
cartoon_3_y_6_x_9 0
cartoon_3_y_6_x_10 0
cartoon_3_y_6_x_11 0
cartoon_3_y_6_x_12 0
cartoon_3_y_6_x_13 0
cartoon_3_y_6_x_14 0
cartoon_3_y_6_x_15 0
cartoon_3_y_6_x_16 0
cartoon_3_y_6_x_17 0
cartoon_3_y_6_x_18 0
cartoon_3_y_6_x_19 0
cartoon_3_y_6_x_20 0
cartoon_3_y_7_x_0 0
cartoon_3_y_7_x_1 0
cartoon_3_y_7_x_2 0
cartoon_3_y_7_x_3 0
cartoon_3_y_7_x_4 0
cartoon_3_y_7_x_5 0
cartoon_3_y_7_x_6 0
cartoon_3_y_7_x_7 0
cartoon_3_y_7_x_8 0
cartoon_3_y_7_x_9 0
cartoon_3_y_7_x_10 0
cartoon_3_y_7_x_11 0
cartoon_3_y_7_x_12 0
cartoon_3_y_7_x_13 0
cartoon_3_y_7_x_14 0
cartoon_3_y_7_x_15 0
cartoon_3_y_7_x_16 0
cartoon_3_y_7_x_17 1
cartoon_3_y_7_x_18 0
cartoon_3_y_7_x_19 0
cartoon_3_y_7_x_20 0
cartoon_3_y_8_x_0 0
cartoon_3_y_8_x_1 0
cartoon_3_y_8_x_2 0
cartoon_3_y_8_x_3 0
cartoon_3_y_8_x_4 0
cartoon_3_y_8_x_5 1
cartoon_3_y_8_x_6 0
cartoon_3_y_8_x_7 0
cartoon_3_y_8_x_8 0
cartoon_3_y_8_x_9 0
cartoon_3_y_8_x_10 1
cartoon_3_y_8_x_11 1
cartoon_3_y_8_x_12 0
cartoon_3_y_8_x_13 0
cartoon_3_y_8_x_14 0
cartoon_3_y_8_x_15 0
cartoon_3_y_8_x_16 1
cartoon_3_y_8_x_17 1
cartoon_3_y_8_x_18 0
cartoon_3_y_8_x_19 0
cartoon_3_y_8_x_20 0
cartoon_3_y_9_x_0 0
cartoon_3_y_9_x_1 0
cartoon_3_y_9_x_2 0
cartoon_3_y_9_x_3 0
cartoon_3_y_9_x_4 0
cartoon_3_y_9_x_5 1
cartoon_3_y_9_x_6 0
cartoon_3_y_9_x_7 0
cartoon_3_y_9_x_8 0
cartoon_3_y_9_x_9 0
cartoon_3_y_9_x_10 1
cartoon_3_y_9_x_11 1
cartoon_3_y_9_x_12 0
cartoon_3_y_9_x_13 0
cartoon_3_y_9_x_14 0
cartoon_3_y_9_x_15 0
cartoon_3_y_9_x_16 1
cartoon_3_y_9_x_17 1
cartoon_3_y_9_x_18 0
cartoon_3_y_9_x_19 0
cartoon_3_y_9_x_20 0
cartoon_3_y_10_x_0 0
cartoon_3_y_10_x_1 0
cartoon_3_y_10_x_2 0
cartoon_3_y_10_x_3 0
cartoon_3_y_10_x_4 1
cartoon_3_y_10_x_5 1
cartoon_3_y_10_x_6 0
cartoon_3_y_10_x_7 1
cartoon_3_y_10_x_8 0
cartoon_3_y_10_x_9 0
cartoon_3_y_10_x_10 0
cartoon_3_y_10_x_11 0
cartoon_3_y_10_x_12 0
cartoon_3_y_10_x_13 0
cartoon_3_y_10_x_14 1
cartoon_3_y_10_x_15 0
cartoon_3_y_10_x_16 1
cartoon_3_y_10_x_17 0
cartoon_3_y_10_x_18 1
cartoon_3_y_10_x_19 0
cartoon_3_y_10_x_20 0
cartoon_4_y_0_x_0 0
cartoon_4_y_0_x_1 0
cartoon_4_y_0_x_2 0
cartoon_4_y_0_x_3 0
cartoon_4_y_0_x_4 0
cartoon_4_y_0_x_5 0
cartoon_4_y_0_x_6 0
cartoon_4_y_0_x_7 0
cartoon_4_y_0_x_8 0
cartoon_4_y_0_x_9 0
cartoon_4_y_0_x_10 0
cartoon_4_y_0_x_11 0
cartoon_4_y_0_x_12 0
cartoon_4_y_0_x_13 0
cartoon_4_y_0_x_14 0
cartoon_4_y_0_x_15 0
cartoon_4_y_0_x_16 0
cartoon_4_y_0_x_17 0
cartoon_4_y_0_x_18 0
cartoon_4_y_0_x_19 0
cartoon_4_y_0_x_20 1
cartoon_4_y_1_x_0 0
cartoon_4_y_1_x_1 0
cartoon_4_y_1_x_2 0
cartoon_4_y_1_x_3 0
cartoon_4_y_1_x_4 0
cartoon_4_y_1_x_5 0
cartoon_4_y_1_x_6 0
cartoon_4_y_1_x_7 0
cartoon_4_y_1_x_8 0
cartoon_4_y_1_x_9 0
cartoon_4_y_1_x_10 0
cartoon_4_y_1_x_11 0
cartoon_4_y_1_x_12 0
cartoon_4_y_1_x_13 0
cartoon_4_y_1_x_14 0
cartoon_4_y_1_x_15 0
cartoon_4_y_1_x_16 0
cartoon_4_y_1_x_17 0
cartoon_4_y_1_x_18 0
cartoon_4_y_1_x_19 0
cartoon_4_y_1_x_20 1
cartoon_4_y_2_x_0 0
cartoon_4_y_2_x_1 0
cartoon_4_y_2_x_2 0
cartoon_4_y_2_x_3 0
cartoon_4_y_2_x_4 0
cartoon_4_y_2_x_5 0
cartoon_4_y_2_x_6 0
cartoon_4_y_2_x_7 0
cartoon_4_y_2_x_8 0
cartoon_4_y_2_x_9 1
cartoon_4_y_2_x_10 0
cartoon_4_y_2_x_11 0
cartoon_4_y_2_x_12 0
cartoon_4_y_2_x_13 0
cartoon_4_y_2_x_14 0
cartoon_4_y_2_x_15 0
cartoon_4_y_2_x_16 0
cartoon_4_y_2_x_17 0
cartoon_4_y_2_x_18 0
cartoon_4_y_2_x_19 0
cartoon_4_y_2_x_20 1
cartoon_4_y_3_x_0 0
cartoon_4_y_3_x_1 0
cartoon_4_y_3_x_2 0
cartoon_4_y_3_x_3 0
cartoon_4_y_3_x_4 0
cartoon_4_y_3_x_5 0
cartoon_4_y_3_x_6 0
cartoon_4_y_3_x_7 0
cartoon_4_y_3_x_8 0
cartoon_4_y_3_x_9 0
cartoon_4_y_3_x_10 0
cartoon_4_y_3_x_11 0
cartoon_4_y_3_x_12 0
cartoon_4_y_3_x_13 0
cartoon_4_y_3_x_14 0
cartoon_4_y_3_x_15 0
cartoon_4_y_3_x_16 1
cartoon_4_y_3_x_17 1
cartoon_4_y_3_x_18 0
cartoon_4_y_3_x_19 0
cartoon_4_y_3_x_20 1
cartoon_4_y_4_x_0 0
cartoon_4_y_4_x_1 0
cartoon_4_y_4_x_2 0
cartoon_4_y_4_x_3 0
cartoon_4_y_4_x_4 0
cartoon_4_y_4_x_5 0
cartoon_4_y_4_x_6 0
cartoon_4_y_4_x_7 0
cartoon_4_y_4_x_8 0
cartoon_4_y_4_x_9 0
cartoon_4_y_4_x_10 0
cartoon_4_y_4_x_11 0
cartoon_4_y_4_x_12 0
cartoon_4_y_4_x_13 0
cartoon_4_y_4_x_14 0
cartoon_4_y_4_x_15 0
cartoon_4_y_4_x_16 0
cartoon_4_y_4_x_17 0
cartoon_4_y_4_x_18 1
cartoon_4_y_4_x_19 0
cartoon_4_y_4_x_20 1
cartoon_4_y_5_x_0 0
cartoon_4_y_5_x_1 0
cartoon_4_y_5_x_2 0
cartoon_4_y_5_x_3 0
cartoon_4_y_5_x_4 0
cartoon_4_y_5_x_5 1
cartoon_4_y_5_x_6 0
cartoon_4_y_5_x_7 0
cartoon_4_y_5_x_8 0
cartoon_4_y_5_x_9 0
cartoon_4_y_5_x_10 0
cartoon_4_y_5_x_11 0
cartoon_4_y_5_x_12 0
cartoon_4_y_5_x_13 0
cartoon_4_y_5_x_14 0
cartoon_4_y_5_x_15 0
cartoon_4_y_5_x_16 0
cartoon_4_y_5_x_17 0
cartoon_4_y_5_x_18 1
cartoon_4_y_5_x_19 0
cartoon_4_y_5_x_20 1
cartoon_4_y_6_x_0 0
cartoon_4_y_6_x_1 0
cartoon_4_y_6_x_2 0
cartoon_4_y_6_x_3 0
cartoon_4_y_6_x_4 0
cartoon_4_y_6_x_5 0
cartoon_4_y_6_x_6 0
cartoon_4_y_6_x_7 0
cartoon_4_y_6_x_8 0
cartoon_4_y_6_x_9 0
cartoon_4_y_6_x_10 0
cartoon_4_y_6_x_11 0
cartoon_4_y_6_x_12 0
cartoon_4_y_6_x_13 0
cartoon_4_y_6_x_14 0
cartoon_4_y_6_x_15 0
cartoon_4_y_6_x_16 0
cartoon_4_y_6_x_17 0
cartoon_4_y_6_x_18 1
cartoon_4_y_6_x_19 0
cartoon_4_y_6_x_20 0
cartoon_4_y_7_x_0 1
cartoon_4_y_7_x_1 0
cartoon_4_y_7_x_2 0
cartoon_4_y_7_x_3 0
cartoon_4_y_7_x_4 0
cartoon_4_y_7_x_5 0
cartoon_4_y_7_x_6 0
cartoon_4_y_7_x_7 0
cartoon_4_y_7_x_8 0
cartoon_4_y_7_x_9 0
cartoon_4_y_7_x_10 0
cartoon_4_y_7_x_11 0
cartoon_4_y_7_x_12 0
cartoon_4_y_7_x_13 0
cartoon_4_y_7_x_14 0
cartoon_4_y_7_x_15 0
cartoon_4_y_7_x_16 0
cartoon_4_y_7_x_17 0
cartoon_4_y_7_x_18 1
cartoon_4_y_7_x_19 0
cartoon_4_y_7_x_20 0
cartoon_4_y_8_x_0 1
cartoon_4_y_8_x_1 0
cartoon_4_y_8_x_2 0
cartoon_4_y_8_x_3 0
cartoon_4_y_8_x_4 0
cartoon_4_y_8_x_5 0
cartoon_4_y_8_x_6 0
cartoon_4_y_8_x_7 0
cartoon_4_y_8_x_8 0
cartoon_4_y_8_x_9 0
cartoon_4_y_8_x_10 0
cartoon_4_y_8_x_11 0
cartoon_4_y_8_x_12 0
cartoon_4_y_8_x_13 0
cartoon_4_y_8_x_14 0
cartoon_4_y_8_x_15 0
cartoon_4_y_8_x_16 0
cartoon_4_y_8_x_17 0
cartoon_4_y_8_x_18 1
cartoon_4_y_8_x_19 0
cartoon_4_y_8_x_20 0
cartoon_4_y_9_x_0 1
cartoon_4_y_9_x_1 0
cartoon_4_y_9_x_2 0
cartoon_4_y_9_x_3 0
cartoon_4_y_9_x_4 0
cartoon_4_y_9_x_5 0
cartoon_4_y_9_x_6 0
cartoon_4_y_9_x_7 0
cartoon_4_y_9_x_8 0
cartoon_4_y_9_x_9 1
cartoon_4_y_9_x_10 0
cartoon_4_y_9_x_11 0
cartoon_4_y_9_x_12 1
cartoon_4_y_9_x_13 0
cartoon_4_y_9_x_14 0
cartoon_4_y_9_x_15 0
cartoon_4_y_9_x_16 0
cartoon_4_y_9_x_17 0
cartoon_4_y_9_x_18 1
cartoon_4_y_9_x_19 0
cartoon_4_y_9_x_20 0
cartoon_4_y_10_x_0 1
cartoon_4_y_10_x_1 1
cartoon_4_y_10_x_2 0
cartoon_4_y_10_x_3 0
cartoon_4_y_10_x_4 0
cartoon_4_y_10_x_5 0
cartoon_4_y_10_x_6 1
cartoon_4_y_10_x_7 0
cartoon_4_y_10_x_8 0
cartoon_4_y_10_x_9 1
cartoon_4_y_10_x_10 1
cartoon_4_y_10_x_11 1
cartoon_4_y_10_x_12 0
cartoon_4_y_10_x_13 0
cartoon_4_y_10_x_14 0
cartoon_4_y_10_x_15 1
cartoon_4_y_10_x_16 0
cartoon_4_y_10_x_17 0
cartoon_4_y_10_x_18 0
cartoon_4_y_10_x_19 0
cartoon_4_y_10_x_20 0
cartoon_5_y_0_x_0 0
cartoon_5_y_0_x_1 0
cartoon_5_y_0_x_2 0
cartoon_5_y_0_x_3 0
cartoon_5_y_0_x_4 0
cartoon_5_y_0_x_5 0
cartoon_5_y_0_x_6 0
cartoon_5_y_0_x_7 0
cartoon_5_y_0_x_8 0
cartoon_5_y_0_x_9 0
cartoon_5_y_0_x_10 0
cartoon_5_y_0_x_11 0
cartoon_5_y_0_x_12 0
cartoon_5_y_0_x_13 0
cartoon_5_y_0_x_14 0
cartoon_5_y_0_x_15 0
cartoon_5_y_0_x_16 0
cartoon_5_y_0_x_17 0
cartoon_5_y_0_x_18 0
cartoon_5_y_0_x_19 1
cartoon_5_y_0_x_20 0
cartoon_5_y_1_x_0 0
cartoon_5_y_1_x_1 0
cartoon_5_y_1_x_2 0
cartoon_5_y_1_x_3 0
cartoon_5_y_1_x_4 0
cartoon_5_y_1_x_5 0
cartoon_5_y_1_x_6 0
cartoon_5_y_1_x_7 0
cartoon_5_y_1_x_8 0
cartoon_5_y_1_x_9 0
cartoon_5_y_1_x_10 0
cartoon_5_y_1_x_11 0
cartoon_5_y_1_x_12 0
cartoon_5_y_1_x_13 0
cartoon_5_y_1_x_14 0
cartoon_5_y_1_x_15 0
cartoon_5_y_1_x_16 0
cartoon_5_y_1_x_17 0
cartoon_5_y_1_x_18 0
cartoon_5_y_1_x_19 1
cartoon_5_y_1_x_20 0
cartoon_5_y_2_x_0 1
cartoon_5_y_2_x_1 0
cartoon_5_y_2_x_2 0
cartoon_5_y_2_x_3 0
cartoon_5_y_2_x_4 0
cartoon_5_y_2_x_5 0
cartoon_5_y_2_x_6 0
cartoon_5_y_2_x_7 0
cartoon_5_y_2_x_8 0
cartoon_5_y_2_x_9 0
cartoon_5_y_2_x_10 0
cartoon_5_y_2_x_11 0
cartoon_5_y_2_x_12 0
cartoon_5_y_2_x_13 0
cartoon_5_y_2_x_14 0
cartoon_5_y_2_x_15 0
cartoon_5_y_2_x_16 0
cartoon_5_y_2_x_17 0
cartoon_5_y_2_x_18 0
cartoon_5_y_2_x_19 1
cartoon_5_y_2_x_20 0
cartoon_5_y_3_x_0 1
cartoon_5_y_3_x_1 0
cartoon_5_y_3_x_2 0
cartoon_5_y_3_x_3 0
cartoon_5_y_3_x_4 0
cartoon_5_y_3_x_5 0
cartoon_5_y_3_x_6 0
cartoon_5_y_3_x_7 0
cartoon_5_y_3_x_8 0
cartoon_5_y_3_x_9 0
cartoon_5_y_3_x_10 0
cartoon_5_y_3_x_11 0
cartoon_5_y_3_x_12 0
cartoon_5_y_3_x_13 0
cartoon_5_y_3_x_14 0
cartoon_5_y_3_x_15 0
cartoon_5_y_3_x_16 0
cartoon_5_y_3_x_17 0
cartoon_5_y_3_x_18 1
cartoon_5_y_3_x_19 1
cartoon_5_y_3_x_20 0
cartoon_5_y_4_x_0 1
cartoon_5_y_4_x_1 0
cartoon_5_y_4_x_2 0
cartoon_5_y_4_x_3 0
cartoon_5_y_4_x_4 0
cartoon_5_y_4_x_5 0
cartoon_5_y_4_x_6 0
cartoon_5_y_4_x_7 0
cartoon_5_y_4_x_8 0
cartoon_5_y_4_x_9 0
cartoon_5_y_4_x_10 0
cartoon_5_y_4_x_11 0
cartoon_5_y_4_x_12 0
cartoon_5_y_4_x_13 0
cartoon_5_y_4_x_14 0
cartoon_5_y_4_x_15 0
cartoon_5_y_4_x_16 0
cartoon_5_y_4_x_17 0
cartoon_5_y_4_x_18 0
cartoon_5_y_4_x_19 1
cartoon_5_y_4_x_20 0
cartoon_5_y_5_x_0 1
cartoon_5_y_5_x_1 0
cartoon_5_y_5_x_2 0
cartoon_5_y_5_x_3 0
cartoon_5_y_5_x_4 0
cartoon_5_y_5_x_5 0
cartoon_5_y_5_x_6 0
cartoon_5_y_5_x_7 0
cartoon_5_y_5_x_8 0
cartoon_5_y_5_x_9 0
cartoon_5_y_5_x_10 0
cartoon_5_y_5_x_11 0
cartoon_5_y_5_x_12 0
cartoon_5_y_5_x_13 0
cartoon_5_y_5_x_14 0
cartoon_5_y_5_x_15 0
cartoon_5_y_5_x_16 0
cartoon_5_y_5_x_17 0
cartoon_5_y_5_x_18 0
cartoon_5_y_5_x_19 1
cartoon_5_y_5_x_20 0
cartoon_5_y_6_x_0 1
cartoon_5_y_6_x_1 0
cartoon_5_y_6_x_2 0
cartoon_5_y_6_x_3 0
cartoon_5_y_6_x_4 0
cartoon_5_y_6_x_5 0
cartoon_5_y_6_x_6 0
cartoon_5_y_6_x_7 0
cartoon_5_y_6_x_8 0
cartoon_5_y_6_x_9 0
cartoon_5_y_6_x_10 0
cartoon_5_y_6_x_11 0
cartoon_5_y_6_x_12 0
cartoon_5_y_6_x_13 0
cartoon_5_y_6_x_14 0
cartoon_5_y_6_x_15 0
cartoon_5_y_6_x_16 0
cartoon_5_y_6_x_17 0
cartoon_5_y_6_x_18 0
cartoon_5_y_6_x_19 1
cartoon_5_y_6_x_20 1
cartoon_5_y_7_x_0 0
cartoon_5_y_7_x_1 1
cartoon_5_y_7_x_2 0
cartoon_5_y_7_x_3 0
cartoon_5_y_7_x_4 0
cartoon_5_y_7_x_5 0
cartoon_5_y_7_x_6 0
cartoon_5_y_7_x_7 0
cartoon_5_y_7_x_8 0
cartoon_5_y_7_x_9 0
cartoon_5_y_7_x_10 0
cartoon_5_y_7_x_11 0
cartoon_5_y_7_x_12 0
cartoon_5_y_7_x_13 0
cartoon_5_y_7_x_14 0
cartoon_5_y_7_x_15 0
cartoon_5_y_7_x_16 0
cartoon_5_y_7_x_17 0
cartoon_5_y_7_x_18 0
cartoon_5_y_7_x_19 1
cartoon_5_y_7_x_20 1
cartoon_5_y_8_x_0 0
cartoon_5_y_8_x_1 1
cartoon_5_y_8_x_2 0
cartoon_5_y_8_x_3 0
cartoon_5_y_8_x_4 0
cartoon_5_y_8_x_5 0
cartoon_5_y_8_x_6 0
cartoon_5_y_8_x_7 0
cartoon_5_y_8_x_8 0
cartoon_5_y_8_x_9 0
cartoon_5_y_8_x_10 0
cartoon_5_y_8_x_11 0
cartoon_5_y_8_x_12 0
cartoon_5_y_8_x_13 0
cartoon_5_y_8_x_14 0
cartoon_5_y_8_x_15 0
cartoon_5_y_8_x_16 0
cartoon_5_y_8_x_17 0
cartoon_5_y_8_x_18 0
cartoon_5_y_8_x_19 1
cartoon_5_y_8_x_20 1
cartoon_5_y_9_x_0 0
cartoon_5_y_9_x_1 1
cartoon_5_y_9_x_2 0
cartoon_5_y_9_x_3 0
cartoon_5_y_9_x_4 1
cartoon_5_y_9_x_5 0
cartoon_5_y_9_x_6 0
cartoon_5_y_9_x_7 0
cartoon_5_y_9_x_8 0
cartoon_5_y_9_x_9 0
cartoon_5_y_9_x_10 0
cartoon_5_y_9_x_11 0
cartoon_5_y_9_x_12 0
cartoon_5_y_9_x_13 0
cartoon_5_y_9_x_14 0
cartoon_5_y_9_x_15 0
cartoon_5_y_9_x_16 0
cartoon_5_y_9_x_17 0
cartoon_5_y_9_x_18 0
cartoon_5_y_9_x_19 1
cartoon_5_y_9_x_20 1
cartoon_5_y_10_x_0 0
cartoon_5_y_10_x_1 0
cartoon_5_y_10_x_2 1
cartoon_5_y_10_x_3 0
cartoon_5_y_10_x_4 0
cartoon_5_y_10_x_5 0
cartoon_5_y_10_x_6 0
cartoon_5_y_10_x_7 0
cartoon_5_y_10_x_8 0
cartoon_5_y_10_x_9 0
cartoon_5_y_10_x_10 0
cartoon_5_y_10_x_11 0
cartoon_5_y_10_x_12 1
cartoon_5_y_10_x_13 0
cartoon_5_y_10_x_14 0
cartoon_5_y_10_x_15 0
cartoon_5_y_10_x_16 0
cartoon_5_y_10_x_17 0
cartoon_5_y_10_x_18 0
cartoon_5_y_10_x_19 1
cartoon_5_y_10_x_20 1
cartoon_6_y_0_x_0 1
cartoon_6_y_0_x_1 1
cartoon_6_y_0_x_2 0
cartoon_6_y_0_x_3 0
cartoon_6_y_0_x_4 0
cartoon_6_y_0_x_5 0
cartoon_6_y_0_x_6 0
cartoon_6_y_0_x_7 0
cartoon_6_y_0_x_8 0
cartoon_6_y_0_x_9 0
cartoon_6_y_0_x_10 0
cartoon_6_y_0_x_11 0
cartoon_6_y_0_x_12 0
cartoon_6_y_0_x_13 0
cartoon_6_y_0_x_14 0
cartoon_6_y_0_x_15 0
cartoon_6_y_0_x_16 0
cartoon_6_y_0_x_17 1
cartoon_6_y_0_x_18 1
cartoon_6_y_0_x_19 0
cartoon_6_y_0_x_20 0
cartoon_6_y_1_x_0 1
cartoon_6_y_1_x_1 1
cartoon_6_y_1_x_2 1
cartoon_6_y_1_x_3 0
cartoon_6_y_1_x_4 0
cartoon_6_y_1_x_5 0
cartoon_6_y_1_x_6 1
cartoon_6_y_1_x_7 0
cartoon_6_y_1_x_8 0
cartoon_6_y_1_x_9 0
cartoon_6_y_1_x_10 0
cartoon_6_y_1_x_11 0
cartoon_6_y_1_x_12 0
cartoon_6_y_1_x_13 0
cartoon_6_y_1_x_14 0
cartoon_6_y_1_x_15 0
cartoon_6_y_1_x_16 0
cartoon_6_y_1_x_17 1
cartoon_6_y_1_x_18 1
cartoon_6_y_1_x_19 0
cartoon_6_y_1_x_20 0
cartoon_6_y_2_x_0 0
cartoon_6_y_2_x_1 1
cartoon_6_y_2_x_2 1
cartoon_6_y_2_x_3 0
cartoon_6_y_2_x_4 0
cartoon_6_y_2_x_5 0
cartoon_6_y_2_x_6 0
cartoon_6_y_2_x_7 0
cartoon_6_y_2_x_8 0
cartoon_6_y_2_x_9 0
cartoon_6_y_2_x_10 1
cartoon_6_y_2_x_11 1
cartoon_6_y_2_x_12 0
cartoon_6_y_2_x_13 0
cartoon_6_y_2_x_14 0
cartoon_6_y_2_x_15 0
cartoon_6_y_2_x_16 0
cartoon_6_y_2_x_17 1
cartoon_6_y_2_x_18 1
cartoon_6_y_2_x_19 0
cartoon_6_y_2_x_20 0
cartoon_6_y_3_x_0 0
cartoon_6_y_3_x_1 1
cartoon_6_y_3_x_2 1
cartoon_6_y_3_x_3 0
cartoon_6_y_3_x_4 1
cartoon_6_y_3_x_5 0
cartoon_6_y_3_x_6 0
cartoon_6_y_3_x_7 0
cartoon_6_y_3_x_8 0
cartoon_6_y_3_x_9 0
cartoon_6_y_3_x_10 0
cartoon_6_y_3_x_11 0
cartoon_6_y_3_x_12 0
cartoon_6_y_3_x_13 0
cartoon_6_y_3_x_14 0
cartoon_6_y_3_x_15 0
cartoon_6_y_3_x_16 0
cartoon_6_y_3_x_17 0
cartoon_6_y_3_x_18 0
cartoon_6_y_3_x_19 0
cartoon_6_y_3_x_20 0
cartoon_6_y_4_x_0 0
cartoon_6_y_4_x_1 1
cartoon_6_y_4_x_2 1
cartoon_6_y_4_x_3 0
cartoon_6_y_4_x_4 0
cartoon_6_y_4_x_5 0
cartoon_6_y_4_x_6 0
cartoon_6_y_4_x_7 0
cartoon_6_y_4_x_8 0
cartoon_6_y_4_x_9 0
cartoon_6_y_4_x_10 0
cartoon_6_y_4_x_11 0
cartoon_6_y_4_x_12 0
cartoon_6_y_4_x_13 0
cartoon_6_y_4_x_14 0
cartoon_6_y_4_x_15 0
cartoon_6_y_4_x_16 0
cartoon_6_y_4_x_17 0
cartoon_6_y_4_x_18 0
cartoon_6_y_4_x_19 0
cartoon_6_y_4_x_20 0
cartoon_6_y_5_x_0 0
cartoon_6_y_5_x_1 1
cartoon_6_y_5_x_2 1
cartoon_6_y_5_x_3 1
cartoon_6_y_5_x_4 0
cartoon_6_y_5_x_5 0
cartoon_6_y_5_x_6 0
cartoon_6_y_5_x_7 0
cartoon_6_y_5_x_8 0
cartoon_6_y_5_x_9 0
cartoon_6_y_5_x_10 0
cartoon_6_y_5_x_11 0
cartoon_6_y_5_x_12 0
cartoon_6_y_5_x_13 0
cartoon_6_y_5_x_14 0
cartoon_6_y_5_x_15 0
cartoon_6_y_5_x_16 0
cartoon_6_y_5_x_17 0
cartoon_6_y_5_x_18 0
cartoon_6_y_5_x_19 0
cartoon_6_y_5_x_20 0
cartoon_6_y_6_x_0 0
cartoon_6_y_6_x_1 1
cartoon_6_y_6_x_2 1
cartoon_6_y_6_x_3 1
cartoon_6_y_6_x_4 0
cartoon_6_y_6_x_5 0
cartoon_6_y_6_x_6 0
cartoon_6_y_6_x_7 0
cartoon_6_y_6_x_8 0
cartoon_6_y_6_x_9 0
cartoon_6_y_6_x_10 0
cartoon_6_y_6_x_11 0
cartoon_6_y_6_x_12 0
cartoon_6_y_6_x_13 0
cartoon_6_y_6_x_14 0
cartoon_6_y_6_x_15 0
cartoon_6_y_6_x_16 0
cartoon_6_y_6_x_17 0
cartoon_6_y_6_x_18 0
cartoon_6_y_6_x_19 0
cartoon_6_y_6_x_20 0
cartoon_6_y_7_x_0 0
cartoon_6_y_7_x_1 0
cartoon_6_y_7_x_2 1
cartoon_6_y_7_x_3 1
cartoon_6_y_7_x_4 0
cartoon_6_y_7_x_5 0
cartoon_6_y_7_x_6 0
cartoon_6_y_7_x_7 0
cartoon_6_y_7_x_8 0
cartoon_6_y_7_x_9 0
cartoon_6_y_7_x_10 0
cartoon_6_y_7_x_11 0
cartoon_6_y_7_x_12 0
cartoon_6_y_7_x_13 0
cartoon_6_y_7_x_14 0
cartoon_6_y_7_x_15 0
cartoon_6_y_7_x_16 0
cartoon_6_y_7_x_17 0
cartoon_6_y_7_x_18 0
cartoon_6_y_7_x_19 0
cartoon_6_y_7_x_20 0
cartoon_6_y_8_x_0 0
cartoon_6_y_8_x_1 0
cartoon_6_y_8_x_2 1
cartoon_6_y_8_x_3 1
cartoon_6_y_8_x_4 1
cartoon_6_y_8_x_5 0
cartoon_6_y_8_x_6 0
cartoon_6_y_8_x_7 0
cartoon_6_y_8_x_8 0
cartoon_6_y_8_x_9 0
cartoon_6_y_8_x_10 0
cartoon_6_y_8_x_11 0
cartoon_6_y_8_x_12 0
cartoon_6_y_8_x_13 0
cartoon_6_y_8_x_14 0
cartoon_6_y_8_x_15 0
cartoon_6_y_8_x_16 0
cartoon_6_y_8_x_17 0
cartoon_6_y_8_x_18 0
cartoon_6_y_8_x_19 0
cartoon_6_y_8_x_20 0
cartoon_6_y_9_x_0 0
cartoon_6_y_9_x_1 0
cartoon_6_y_9_x_2 1
cartoon_6_y_9_x_3 1
cartoon_6_y_9_x_4 0
cartoon_6_y_9_x_5 0
cartoon_6_y_9_x_6 0
cartoon_6_y_9_x_7 0
cartoon_6_y_9_x_8 0
cartoon_6_y_9_x_9 0
cartoon_6_y_9_x_10 0
cartoon_6_y_9_x_11 0
cartoon_6_y_9_x_12 0
cartoon_6_y_9_x_13 0
cartoon_6_y_9_x_14 0
cartoon_6_y_9_x_15 0
cartoon_6_y_9_x_16 0
cartoon_6_y_9_x_17 0
cartoon_6_y_9_x_18 0
cartoon_6_y_9_x_19 0
cartoon_6_y_9_x_20 0
cartoon_6_y_10_x_0 0
cartoon_6_y_10_x_1 0
cartoon_6_y_10_x_2 0
cartoon_6_y_10_x_3 1
cartoon_6_y_10_x_4 0
cartoon_6_y_10_x_5 0
cartoon_6_y_10_x_6 0
cartoon_6_y_10_x_7 0
cartoon_6_y_10_x_8 0
cartoon_6_y_10_x_9 0
cartoon_6_y_10_x_10 0
cartoon_6_y_10_x_11 0
cartoon_6_y_10_x_12 0
cartoon_6_y_10_x_13 0
cartoon_6_y_10_x_14 0
cartoon_6_y_10_x_15 0
cartoon_6_y_10_x_16 0
cartoon_6_y_10_x_17 0
cartoon_6_y_10_x_18 0
cartoon_6_y_10_x_19 0
cartoon_6_y_10_x_20 0
cartoon_7_y_0_x_0 0
cartoon_7_y_0_x_1 0
cartoon_7_y_0_x_2 1
cartoon_7_y_0_x_3 1
cartoon_7_y_0_x_4 1
cartoon_7_y_0_x_5 1
cartoon_7_y_0_x_6 1
cartoon_7_y_0_x_7 1
cartoon_7_y_0_x_8 1
cartoon_7_y_0_x_9 1
cartoon_7_y_0_x_10 1
cartoon_7_y_0_x_11 1
cartoon_7_y_0_x_12 1
cartoon_7_y_0_x_13 1
cartoon_7_y_0_x_14 1
cartoon_7_y_0_x_15 0
cartoon_7_y_0_x_16 0
cartoon_7_y_0_x_17 0
cartoon_7_y_0_x_18 0
cartoon_7_y_0_x_19 0
cartoon_7_y_0_x_20 0
cartoon_7_y_1_x_0 0
cartoon_7_y_1_x_1 0
cartoon_7_y_1_x_2 0
cartoon_7_y_1_x_3 1
cartoon_7_y_1_x_4 0
cartoon_7_y_1_x_5 0
cartoon_7_y_1_x_6 0
cartoon_7_y_1_x_7 1
cartoon_7_y_1_x_8 1
cartoon_7_y_1_x_9 1
cartoon_7_y_1_x_10 1
cartoon_7_y_1_x_11 1
cartoon_7_y_1_x_12 1
cartoon_7_y_1_x_13 1
cartoon_7_y_1_x_14 0
cartoon_7_y_1_x_15 0
cartoon_7_y_1_x_16 0
cartoon_7_y_1_x_17 0
cartoon_7_y_1_x_18 0
cartoon_7_y_1_x_19 0
cartoon_7_y_1_x_20 0
cartoon_7_y_2_x_0 0
cartoon_7_y_2_x_1 0
cartoon_7_y_2_x_2 0
cartoon_7_y_2_x_3 1
cartoon_7_y_2_x_4 0
cartoon_7_y_2_x_5 0
cartoon_7_y_2_x_6 0
cartoon_7_y_2_x_7 0
cartoon_7_y_2_x_8 0
cartoon_7_y_2_x_9 0
cartoon_7_y_2_x_10 0
cartoon_7_y_2_x_11 0
cartoon_7_y_2_x_12 0
cartoon_7_y_2_x_13 0
cartoon_7_y_2_x_14 0
cartoon_7_y_2_x_15 0
cartoon_7_y_2_x_16 0
cartoon_7_y_2_x_17 0
cartoon_7_y_2_x_18 0
cartoon_7_y_2_x_19 0
cartoon_7_y_2_x_20 0
cartoon_7_y_3_x_0 0
cartoon_7_y_3_x_1 0
cartoon_7_y_3_x_2 0
cartoon_7_y_3_x_3 1
cartoon_7_y_3_x_4 0
cartoon_7_y_3_x_5 0
cartoon_7_y_3_x_6 0
cartoon_7_y_3_x_7 0
cartoon_7_y_3_x_8 0
cartoon_7_y_3_x_9 0
cartoon_7_y_3_x_10 0
cartoon_7_y_3_x_11 0
cartoon_7_y_3_x_12 0
cartoon_7_y_3_x_13 0
cartoon_7_y_3_x_14 0
cartoon_7_y_3_x_15 0
cartoon_7_y_3_x_16 0
cartoon_7_y_3_x_17 0
cartoon_7_y_3_x_18 0
cartoon_7_y_3_x_19 0
cartoon_7_y_3_x_20 0
cartoon_7_y_4_x_0 0
cartoon_7_y_4_x_1 0
cartoon_7_y_4_x_2 0
cartoon_7_y_4_x_3 1
cartoon_7_y_4_x_4 1
cartoon_7_y_4_x_5 0
cartoon_7_y_4_x_6 0
cartoon_7_y_4_x_7 0
cartoon_7_y_4_x_8 0
cartoon_7_y_4_x_9 0
cartoon_7_y_4_x_10 0
cartoon_7_y_4_x_11 0
cartoon_7_y_4_x_12 0
cartoon_7_y_4_x_13 0
cartoon_7_y_4_x_14 0
cartoon_7_y_4_x_15 0
cartoon_7_y_4_x_16 0
cartoon_7_y_4_x_17 0
cartoon_7_y_4_x_18 0
cartoon_7_y_4_x_19 0
cartoon_7_y_4_x_20 0
cartoon_7_y_5_x_0 0
cartoon_7_y_5_x_1 0
cartoon_7_y_5_x_2 0
cartoon_7_y_5_x_3 0
cartoon_7_y_5_x_4 1
cartoon_7_y_5_x_5 0
cartoon_7_y_5_x_6 0
cartoon_7_y_5_x_7 0
cartoon_7_y_5_x_8 0
cartoon_7_y_5_x_9 0
cartoon_7_y_5_x_10 0
cartoon_7_y_5_x_11 0
cartoon_7_y_5_x_12 0
cartoon_7_y_5_x_13 0
cartoon_7_y_5_x_14 0
cartoon_7_y_5_x_15 0
cartoon_7_y_5_x_16 0
cartoon_7_y_5_x_17 0
cartoon_7_y_5_x_18 0
cartoon_7_y_5_x_19 0
cartoon_7_y_5_x_20 0
cartoon_7_y_6_x_0 0
cartoon_7_y_6_x_1 0
cartoon_7_y_6_x_2 0
cartoon_7_y_6_x_3 0
cartoon_7_y_6_x_4 1
cartoon_7_y_6_x_5 0
cartoon_7_y_6_x_6 0
cartoon_7_y_6_x_7 0
cartoon_7_y_6_x_8 0
cartoon_7_y_6_x_9 0
cartoon_7_y_6_x_10 0
cartoon_7_y_6_x_11 0
cartoon_7_y_6_x_12 0
cartoon_7_y_6_x_13 0
cartoon_7_y_6_x_14 0
cartoon_7_y_6_x_15 0
cartoon_7_y_6_x_16 0
cartoon_7_y_6_x_17 0
cartoon_7_y_6_x_18 0
cartoon_7_y_6_x_19 0
cartoon_7_y_6_x_20 0
cartoon_7_y_7_x_0 0
cartoon_7_y_7_x_1 0
cartoon_7_y_7_x_2 0
cartoon_7_y_7_x_3 0
cartoon_7_y_7_x_4 1
cartoon_7_y_7_x_5 0
cartoon_7_y_7_x_6 0
cartoon_7_y_7_x_7 0
cartoon_7_y_7_x_8 0
cartoon_7_y_7_x_9 0
cartoon_7_y_7_x_10 0
cartoon_7_y_7_x_11 0
cartoon_7_y_7_x_12 0
cartoon_7_y_7_x_13 0
cartoon_7_y_7_x_14 0
cartoon_7_y_7_x_15 0
cartoon_7_y_7_x_16 0
cartoon_7_y_7_x_17 0
cartoon_7_y_7_x_18 0
cartoon_7_y_7_x_19 0
cartoon_7_y_7_x_20 0
cartoon_7_y_8_x_0 0
cartoon_7_y_8_x_1 0
cartoon_7_y_8_x_2 0
cartoon_7_y_8_x_3 0
cartoon_7_y_8_x_4 0
cartoon_7_y_8_x_5 0
cartoon_7_y_8_x_6 0
cartoon_7_y_8_x_7 0
cartoon_7_y_8_x_8 0
cartoon_7_y_8_x_9 0
cartoon_7_y_8_x_10 0
cartoon_7_y_8_x_11 0
cartoon_7_y_8_x_12 0
cartoon_7_y_8_x_13 0
cartoon_7_y_8_x_14 0
cartoon_7_y_8_x_15 0
cartoon_7_y_8_x_16 0
cartoon_7_y_8_x_17 0
cartoon_7_y_8_x_18 0
cartoon_7_y_8_x_19 0
cartoon_7_y_8_x_20 0
cartoon_7_y_9_x_0 0
cartoon_7_y_9_x_1 0
cartoon_7_y_9_x_2 0
cartoon_7_y_9_x_3 0
cartoon_7_y_9_x_4 0
cartoon_7_y_9_x_5 0
cartoon_7_y_9_x_6 0
cartoon_7_y_9_x_7 0
cartoon_7_y_9_x_8 0
cartoon_7_y_9_x_9 0
cartoon_7_y_9_x_10 0
cartoon_7_y_9_x_11 0
cartoon_7_y_9_x_12 0
cartoon_7_y_9_x_13 0
cartoon_7_y_9_x_14 0
cartoon_7_y_9_x_15 0
cartoon_7_y_9_x_16 0
cartoon_7_y_9_x_17 0
cartoon_7_y_9_x_18 0
cartoon_7_y_9_x_19 0
cartoon_7_y_9_x_20 0
cartoon_7_y_10_x_0 0
cartoon_7_y_10_x_1 0
cartoon_7_y_10_x_2 0
cartoon_7_y_10_x_3 0
cartoon_7_y_10_x_4 0
cartoon_7_y_10_x_5 0
cartoon_7_y_10_x_6 0
cartoon_7_y_10_x_7 0
cartoon_7_y_10_x_8 0
cartoon_7_y_10_x_9 0
cartoon_7_y_10_x_10 0
cartoon_7_y_10_x_11 0
cartoon_7_y_10_x_12 0
cartoon_7_y_10_x_13 0
cartoon_7_y_10_x_14 0
cartoon_7_y_10_x_15 0
cartoon_7_y_10_x_16 0
cartoon_7_y_10_x_17 0
cartoon_7_y_10_x_18 0
cartoon_7_y_10_x_19 0
cartoon_7_y_10_x_20 0
